%SETS
JOBS     = 1..2;
MACHINES = 1..7;
SPEED    = 1;

time               = array3d(JOBS,MACHINES,1..SPEED,[90, 96, 44, 81, 57, 61, 93, 16, 17, 11, 84, 80, 88, 98]);
energy             = array3d(JOBS,MACHINES,1..SPEED,[40, 38, 64, 44, 56, 54, 39, 85, 84, 89, 43, 44, 41, 37]);
precedence         = array2d(JOBS,MACHINES,[6,5,2,4,1,3,0,6,5,0,1,3,4,2]);